n=20;
m=60;
ciudades=[|19, 20
|6, 20
|16, 6
|9, 8
|14, 5
|9, 2
|9, 9
|20, 3
|20, 17
|18, 3
|20, 0
|12, 14
|8, 5
|14, 8
|18, 6
|0, 20
|12, 6
|0, 2
|19, 0
|15, 11
|12, 7
|13, 6
|7, 1
|10, 10
|3, 7
|12, 17
|13, 10
|11, 18
|12, 5
|3, 20
|10, 15
|6, 17
|19, 14
|6, 2
|19, 17
|2, 7
|11, 5
|5, 7
|20, 12
|20, 1
|14, 4
|2, 0
|8, 19
|13, 3
|5, 14
|1, 18
|6, 12
|7, 5
|6, 5
|17, 10
|7, 15
|13, 19
|6, 13
|8, 2
|16, 5
|20, 2
|11, 17
|14, 6
|5, 4
|2, 2|];